
(set-logic BV)

(define-fun shr1 ((x (BitVec 64))) (BitVec 64) (bvlshr x #x0000000000000001))
(define-fun shr4 ((x (BitVec 64))) (BitVec 64) (bvlshr x #x0000000000000004))
(define-fun shr16 ((x (BitVec 64))) (BitVec 64) (bvlshr x #x0000000000000010))
(define-fun shl1 ((x (BitVec 64))) (BitVec 64) (bvshl x #x0000000000000001))
(define-fun if0 ((x (BitVec 64)) (y (BitVec 64)) (z (BitVec 64))) (BitVec 64) (ite (= x #x0000000000000001) y z))

(synth-fun f ( (x (BitVec 64))) (BitVec 64)
(

(Start (BitVec 64) (#x0000000000000000 #x0000000000000001 x (bvnot Start)
                    (shl1 Start)
 		    (shr1 Start)
		    (shr4 Start)
		    (shr16 Start)
		    (bvand Start Start)
		    (bvor Start Start)
		    (bvxor Start Start)
		    (bvadd Start Start)
		    (if0 Start Start Start)
 ))
)
)


(constraint (= (f #xd5752ee87720d71e) #x2a8ad11788df28e1))
(constraint (= (f #xe670aad84eee5ed9) #x0000000000000001))
(constraint (= (f #xc20133e172eabe7c) #x0000000000000000))
(constraint (= (f #x57b6e71e0e176250) #x0000000000000000))
(constraint (= (f #xc39eda372131903c) #x0000000000000000))
(constraint (= (f #x4d0e212b30c5c1ab) #xb2f1ded4cf3a3e55))
(constraint (= (f #xe336c0825b34e2b6) #x1cc93f7da4cb1d49))
(constraint (= (f #x092697eb5b6b61d5) #x0000000000000001))
(constraint (= (f #x03262104ebc638b6) #xfcd9defb1439c749))
(constraint (= (f #x8e8e7ac6504aea2c) #x0000000000000000))
(check-synth)
